91
150
120	6
119	1
118	7
117	5
116	7
115	4
114	2
113	3
112	4
111	3
110	7
109	8
108	2
107	4
106	12
105	1
104	5
103	2
102	1
101	3
100	3
99	4
98	1
97	1
96	5
95	6
94	5
93	3
92	3
91	2
90	2
89	3
88	4
87	4
86	4
85	5
84	3
83	3
82	3
81	4
80	2
79	3
78	3
77	4
76	2
75	6
74	4
73	4
72	4
71	9
70	6
69	7
68	5
67	3
66	6
65	6
64	4
63	3
62	4
61	6
60	4
59	2
58	3
57	6
56	7
55	7
54	8
53	3
52	4
51	6
50	6
49	1
48	7
47	8
46	4
45	5
44	2
43	4
42	2
41	7
40	9
39	6
38	4
37	4
36	1
35	6
34	4
33	6
32	9
31	7
30	2
